NAME : S-G-150-6.2186.tour
COMMENT : Length = 2186
COMMENT : Found by LKH [Keld Helsgaun] Thu May 17 23:18:20 2018
TYPE : TOUR
DIMENSION : 31
TOUR_SECTION
1
27
24
20
30
11
8
9
13
16
21
4
10
15
12
3
25
7
5
14
6
2
26
18
19
31
28
22
23
17
29
-1
EOF
